/*********************************************
 * OPL 12.6.0.0 Data
 * Author: Adrian Rodriguez Bazaga, Pau Rodriguez Esmerats
 * Creation Date: 10/12/2017 at 07:22:17
 *********************************************/

maxConsec=6;
maxPresence=12;
maxHours=8;
minHours=2;
hours=18;
demand= [9 13 12 12 15 16 14 16 21 16 17 13 15 12 13 10 9 8  ];
nNurses=64;
